\ENCODING=ISO-8859-1
\Problem name: IloCplex

Minimize
 obj1: 999999 x_0_0_0 + 35.3553390593274 x_0_0_1 + 32.3882694814033 x_0_0_2
       + 31.04834939252 x_0_0_3 + 29.732137494637 x_0_0_4
       + 26.9258240356725 x_0_0_5 + 24.3515913237718 x_0_0_6
       + 26.4764045897475 x_0_0_7 + 25.4950975679639 x_0_0_8
       + 20.6155281280883 x_0_0_9 + 22.3606797749979 x_0_0_10
       + 35.3553390593274 x_0_1_0 + 999999 x_0_1_1 + 3 x_0_1_2
       + 5.8309518948453 x_0_1_3 + 8.60232526704263 x_0_1_4
       + 11.1803398874989 x_0_1_5 + 12.369316876853 x_0_1_6 + 9 x_0_1_7
       + 10 x_0_1_8 + 15 x_0_1_9 + 15.8113883008419 x_0_1_10
       + 32.3882694814033 x_0_2_0 + 3 x_0_2_1 + 999999 x_0_2_2
       + 3.60555127546399 x_0_2_3 + 6.40312423743285 x_0_2_4
       + 8.60232526704263 x_0_2_5 + 9.48683298050514 x_0_2_6 + 6 x_0_2_7
       + 7 x_0_2_8 + 12 x_0_2_9 + 13 x_0_2_10 + 31.04834939252 x_0_3_0
       + 5.8309518948453 x_0_3_1 + 3.60555127546399 x_0_3_2 + 999999 x_0_3_3
       + 2.82842712474619 x_0_3_4 + 5.3851648071345 x_0_3_5 + 7 x_0_3_6
       + 5 x_0_3_7 + 5.8309518948453 x_0_3_8 + 10.4403065089106 x_0_3_9
       + 10.1980390271856 x_0_3_10 + 29.732137494637 x_0_4_0
       + 8.60232526704263 x_0_4_1 + 6.40312423743285 x_0_4_2
       + 2.82842712474619 x_0_4_3 + 999999 x_0_4_4 + 3 x_0_4_5
       + 5.3851648071345 x_0_4_6 + 5.3851648071345 x_0_4_7
       + 5.8309518948453 x_0_4_8 + 9.4339811320566 x_0_4_9 + 8 x_0_4_10
       + 26.9258240356725 x_0_5_0 + 11.1803398874989 x_0_5_1
       + 8.60232526704263 x_0_5_2 + 5.3851648071345 x_0_5_3 + 3 x_0_5_4
       + 999999 x_0_5_5 + 2.82842712474619 x_0_5_6 + 5.09901951359278 x_0_5_7
       + 5 x_0_5_8 + 7.07106781186548 x_0_5_9 + 5 x_0_5_10
       + 24.3515913237718 x_0_6_0 + 12.369316876853 x_0_6_1
       + 9.48683298050514 x_0_6_2 + 7 x_0_6_3 + 5.3851648071345 x_0_6_4
       + 2.82842712474619 x_0_6_5 + 999999 x_0_6_6 + 4.24264068711928 x_0_6_7
       + 3.60555127546399 x_0_6_8 + 4.24264068711928 x_0_6_9
       + 3.60555127546399 x_0_6_10 + 26.4764045897475 x_0_7_0 + 9 x_0_7_1
       + 6 x_0_7_2 + 5 x_0_7_3 + 5.3851648071345 x_0_7_4
       + 5.09901951359278 x_0_7_5 + 4.24264068711928 x_0_7_6 + 999999 x_0_7_7
       + x_0_7_8 + 6 x_0_7_9 + 7.81024967590665 x_0_7_10
       + 25.4950975679639 x_0_8_0 + 10 x_0_8_1 + 7 x_0_8_2
       + 5.8309518948453 x_0_8_3 + 5.8309518948453 x_0_8_4 + 5 x_0_8_5
       + 3.60555127546399 x_0_8_6 + x_0_8_7 + 999999 x_0_8_8 + 5 x_0_8_9
       + 7.07106781186548 x_0_8_10 + 20.6155281280883 x_0_9_0 + 15 x_0_9_1
       + 12 x_0_9_2 + 10.4403065089106 x_0_9_3 + 9.4339811320566 x_0_9_4
       + 7.07106781186548 x_0_9_5 + 4.24264068711928 x_0_9_6 + 6 x_0_9_7
       + 5 x_0_9_8 + 999999 x_0_9_9 + 5 x_0_9_10 + 22.3606797749979 x_0_10_0
       + 15.8113883008419 x_0_10_1 + 13 x_0_10_2 + 10.1980390271856 x_0_10_3
       + 8 x_0_10_4 + 5 x_0_10_5 + 3.60555127546399 x_0_10_6
       + 7.81024967590665 x_0_10_7 + 7.07106781186548 x_0_10_8 + 5 x_0_10_9
       + 999999 x_0_10_10 + 20
Subject To
 alguemSaiDoCliente(1)#0:        z_0_1 + y_0_1  = 1
 alguemSaiDoCliente(2)#1:        z_0_2 + y_0_2  = 1
 alguemSaiDoCliente(3)#2:        z_0_3 + y_0_3  = 1
 alguemSaiDoCliente(4)#3:        z_0_4 + y_0_4  = 1
 alguemSaiDoCliente(5)#4:        z_0_5 + y_0_5  = 1
 alguemSaiDoCliente(6)#5:        z_0_6 + y_0_6  = 1
 alguemSaiDoCliente(7)#6:        z_0_7 + y_0_7  = 1
 alguemSaiDoCliente(8)#7:        z_0_8 + y_0_8  = 1
 alguemSaiDoCliente(9)#8:        z_0_9 + y_0_9  = 1
 alguemSaiDoCliente(10)#9:       z_0_10 + y_0_10  = 1
 veiculo_origin_0#10:            z_0_1 + z_0_2 + z_0_3 + z_0_4 + z_0_5 + z_0_6
                                 + z_0_7 + z_0_8 + z_0_9 + z_0_10 + z_0_0 <= 11
 chegadaNoCliente_1_peloVehicle_0#11: x_0_0_1 + x_0_2_1 + x_0_3_1 + x_0_4_1
                                 + x_0_5_1 + x_0_6_1 + x_0_7_1 + x_0_8_1
                                 + x_0_9_1 + x_0_10_1  = 1
 chegadaNoCliente_2_peloVehicle_0#12: x_0_0_2 + x_0_1_2 + x_0_3_2 + x_0_4_2
                                 + x_0_5_2 + x_0_6_2 + x_0_7_2 + x_0_8_2
                                 + x_0_9_2 + x_0_10_2  = 1
 chegadaNoCliente_3_peloVehicle_0#13: x_0_0_3 + x_0_1_3 + x_0_2_3 + x_0_4_3
                                 + x_0_5_3 + x_0_6_3 + x_0_7_3 + x_0_8_3
                                 + x_0_9_3 + x_0_10_3  = 1
 chegadaNoCliente_4_peloVehicle_0#14: x_0_0_4 + x_0_1_4 + x_0_2_4 + x_0_3_4
                                 + x_0_5_4 + x_0_6_4 + x_0_7_4 + x_0_8_4
                                 + x_0_9_4 + x_0_10_4  = 1
 chegadaNoCliente_5_peloVehicle_0#15: x_0_0_5 + x_0_1_5 + x_0_2_5 + x_0_3_5
                                 + x_0_4_5 + x_0_6_5 + x_0_7_5 + x_0_8_5
                                 + x_0_9_5 + x_0_10_5  = 1
 chegadaNoCliente_6_peloVehicle_0#16: x_0_0_6 + x_0_1_6 + x_0_2_6 + x_0_3_6
                                 + x_0_4_6 + x_0_5_6 + x_0_7_6 + x_0_8_6
                                 + x_0_9_6 + x_0_10_6  = 1
 chegadaNoCliente_7_peloVehicle_0#17: x_0_0_7 + x_0_1_7 + x_0_2_7 + x_0_3_7
                                 + x_0_4_7 + x_0_5_7 + x_0_6_7 + x_0_8_7
                                 + x_0_9_7 + x_0_10_7  = 1
 chegadaNoCliente_8_peloVehicle_0#18: x_0_0_8 + x_0_1_8 + x_0_2_8 + x_0_3_8
                                 + x_0_4_8 + x_0_5_8 + x_0_6_8 + x_0_7_8
                                 + x_0_9_8 + x_0_10_8  = 1
 chegadaNoCliente_9_peloVehicle_0#19: x_0_0_9 + x_0_1_9 + x_0_2_9 + x_0_3_9
                                 + x_0_4_9 + x_0_5_9 + x_0_6_9 + x_0_7_9
                                 + x_0_8_9 + x_0_10_9  = 1
 chegadaNoCliente_10_peloVehicle_0#20: x_0_0_10 + x_0_1_10 + x_0_2_10
                                 + x_0_3_10 + x_0_4_10 + x_0_5_10 + x_0_6_10
                                 + x_0_7_10 + x_0_8_10 + x_0_9_10  = 1
 saidaDoCliente_0_peloVehicle_0#21: x_0_0_1 + x_0_0_2 + x_0_0_3 + x_0_0_4
                                 + x_0_0_5 + x_0_0_6 + x_0_0_7 + x_0_0_8
                                 + x_0_0_9 + x_0_0_10 - z_0_0  = 0
 saidaDoCliente_1_peloVehicle_0#22: x_0_1_2 + x_0_1_3 + x_0_1_4 + x_0_1_5
                                 + x_0_1_6 + x_0_1_7 + x_0_1_8 + x_0_1_9
                                 + x_0_1_10 - z_0_1  = 0
 saidaDoCliente_2_peloVehicle_0#23: x_0_2_1 + x_0_2_3 + x_0_2_4 + x_0_2_5
                                 + x_0_2_6 + x_0_2_7 + x_0_2_8 + x_0_2_9
                                 + x_0_2_10 - z_0_2  = 0
 saidaDoCliente_3_peloVehicle_0#24: x_0_3_1 + x_0_3_2 + x_0_3_4 + x_0_3_5
                                 + x_0_3_6 + x_0_3_7 + x_0_3_8 + x_0_3_9
                                 + x_0_3_10 - z_0_3  = 0
 saidaDoCliente_4_peloVehicle_0#25: x_0_4_1 + x_0_4_2 + x_0_4_3 + x_0_4_5
                                 + x_0_4_6 + x_0_4_7 + x_0_4_8 + x_0_4_9
                                 + x_0_4_10 - z_0_4  = 0
 saidaDoCliente_5_peloVehicle_0#26: x_0_5_1 + x_0_5_2 + x_0_5_3 + x_0_5_4
                                 + x_0_5_6 + x_0_5_7 + x_0_5_8 + x_0_5_9
                                 + x_0_5_10 - z_0_5  = 0
 saidaDoCliente_6_peloVehicle_0#27: x_0_6_1 + x_0_6_2 + x_0_6_3 + x_0_6_4
                                 + x_0_6_5 + x_0_6_7 + x_0_6_8 + x_0_6_9
                                 + x_0_6_10 - z_0_6  = 0
 saidaDoCliente_7_peloVehicle_0#28: x_0_7_1 + x_0_7_2 + x_0_7_3 + x_0_7_4
                                 + x_0_7_5 + x_0_7_6 + x_0_7_8 + x_0_7_9
                                 + x_0_7_10 - z_0_7  = 0
 saidaDoCliente_8_peloVehicle_0#29: x_0_8_1 + x_0_8_2 + x_0_8_3 + x_0_8_4
                                 + x_0_8_5 + x_0_8_6 + x_0_8_7 + x_0_8_9
                                 + x_0_8_10 - z_0_8  = 0
 saidaDoCliente_9_peloVehicle_0#30: x_0_9_1 + x_0_9_2 + x_0_9_3 + x_0_9_4
                                 + x_0_9_5 + x_0_9_6 + x_0_9_7 + x_0_9_8
                                 + x_0_9_10 - z_0_9  = 0
 saidaDoCliente_10_peloVehicle_0#31: x_0_10_1 + x_0_10_2 + x_0_10_3 + x_0_10_4
                                 + x_0_10_5 + x_0_10_6 + x_0_10_7 + x_0_10_8
                                 + x_0_10_9 - z_0_10  = 0
 veiculo_0_utilizado#32:         x_0_0_0 + x_0_0_1 + x_0_0_2 + x_0_0_3
                                 + x_0_0_4 + x_0_0_5 + x_0_0_6 + x_0_0_7
                                 + x_0_0_8 + x_0_0_9 + x_0_0_10 + x_0_1_0
                                 + x_0_1_1 + x_0_1_2 + x_0_1_3 + x_0_1_4
                                 + x_0_1_5 + x_0_1_6 + x_0_1_7 + x_0_1_8
                                 + x_0_1_9 + x_0_1_10 + x_0_2_0 + x_0_2_1
                                 + x_0_2_2 + x_0_2_3 + x_0_2_4 + x_0_2_5
                                 + x_0_2_6 + x_0_2_7 + x_0_2_8 + x_0_2_9
                                 + x_0_2_10 + x_0_3_0 + x_0_3_1 + x_0_3_2
                                 + x_0_3_3 + x_0_3_4 + x_0_3_5 + x_0_3_6
                                 + x_0_3_7 + x_0_3_8 + x_0_3_9 + x_0_3_10
                                 + x_0_4_0 + x_0_4_1 + x_0_4_2 + x_0_4_3
                                 + x_0_4_4 + x_0_4_5 + x_0_4_6 + x_0_4_7
                                 + x_0_4_8 + x_0_4_9 + x_0_4_10 + x_0_5_0
                                 + x_0_5_1 + x_0_5_2 + x_0_5_3 + x_0_5_4
                                 + x_0_5_5 + x_0_5_6 + x_0_5_7 + x_0_5_8
                                 + x_0_5_9 + x_0_5_10 + x_0_6_0 + x_0_6_1
                                 + x_0_6_2 + x_0_6_3 + x_0_6_4 + x_0_6_5
                                 + x_0_6_6 + x_0_6_7 + x_0_6_8 + x_0_6_9
                                 + x_0_6_10 + x_0_7_0 + x_0_7_1 + x_0_7_2
                                 + x_0_7_3 + x_0_7_4 + x_0_7_5 + x_0_7_6
                                 + x_0_7_7 + x_0_7_8 + x_0_7_9 + x_0_7_10
                                 + x_0_8_0 + x_0_8_1 + x_0_8_2 + x_0_8_3
                                 + x_0_8_4 + x_0_8_5 + x_0_8_6 + x_0_8_7
                                 + x_0_8_8 + x_0_8_9 + x_0_8_10 + x_0_9_0
                                 + x_0_9_1 + x_0_9_2 + x_0_9_3 + x_0_9_4
                                 + x_0_9_5 + x_0_9_6 + x_0_9_7 + x_0_9_8
                                 + x_0_9_9 + x_0_9_10 + x_0_10_0 + x_0_10_1
                                 + x_0_10_2 + x_0_10_3 + x_0_10_4 + x_0_10_5
                                 + x_0_10_6 + x_0_10_7 + x_0_10_8 + x_0_10_9
                                 + x_0_10_10 <= 11
 saida_Deposito#33:              x_0_0_1 + x_0_0_2 + x_0_0_3 + x_0_0_4
                                 + x_0_0_5 + x_0_0_6 + x_0_0_7 + x_0_0_8
                                 + x_0_0_9 + x_0_0_10  = 1
 saida_Deposito2#34:             z_0_0  = 1
 retorno_Deposito#35:            x_0_1_0 + x_0_2_0 + x_0_3_0 + x_0_4_0
                                 + x_0_5_0 + x_0_6_0 + x_0_7_0 + x_0_8_0
                                 + x_0_9_0 + x_0_10_0  = 0
 retorno_Deposito2#36:            = 0
 SumDrivers#37:                  >= 0
 GETOUT_0_0_1#38:                - 200 x_0_0_1 - u_0_1 + u_0_0 >= -200
 GETOUT_0_0_2#39:                - 200 x_0_0_2 + u_0_0 - u_0_2 >= -200
 GETOUT_0_0_3#40:                - 200 x_0_0_3 + u_0_0 - u_0_3 >= -200
 GETOUT_0_0_4#41:                - 200 x_0_0_4 + u_0_0 - u_0_4 >= -200
 GETOUT_0_0_5#42:                - 200 x_0_0_5 + u_0_0 - u_0_5 >= -200
 GETOUT_0_0_6#43:                - 200 x_0_0_6 + u_0_0 - u_0_6 >= -200
 GETOUT_0_0_7#44:                - 200 x_0_0_7 + u_0_0 - u_0_7 >= -200
 GETOUT_0_0_8#45:                - 200 x_0_0_8 + u_0_0 - u_0_8 >= -200
 GETOUT_0_0_9#46:                - 200 x_0_0_9 + u_0_0 - u_0_9 >= -200
 GETOUT_0_0_10#47:               - 200 x_0_0_10 + u_0_0 - u_0_10 >= -200
 GETOUT_0_1_0#48:                - 200 x_0_1_0 + u_0_1 - u_0_0 >= -180
 GETOUT_0_1_2#49:                - 200 x_0_1_2 + u_0_1 - u_0_2 >= -180
 GETOUT_0_1_3#50:                - 200 x_0_1_3 + u_0_1 - u_0_3 >= -180
 GETOUT_0_1_4#51:                - 200 x_0_1_4 + u_0_1 - u_0_4 >= -180
 GETOUT_0_1_5#52:                - 200 x_0_1_5 + u_0_1 - u_0_5 >= -180
 GETOUT_0_1_6#53:                - 200 x_0_1_6 + u_0_1 - u_0_6 >= -180
 GETOUT_0_1_7#54:                - 200 x_0_1_7 + u_0_1 - u_0_7 >= -180
 GETOUT_0_1_8#55:                - 200 x_0_1_8 + u_0_1 - u_0_8 >= -180
 GETOUT_0_1_9#56:                - 200 x_0_1_9 + u_0_1 - u_0_9 >= -180
 GETOUT_0_1_10#57:               - 200 x_0_1_10 + u_0_1 - u_0_10 >= -180
 GETOUT_0_2_0#58:                - 200 x_0_2_0 - u_0_0 + u_0_2 >= -190
 GETOUT_0_2_1#59:                - 200 x_0_2_1 - u_0_1 + u_0_2 >= -190
 GETOUT_0_2_3#60:                - 200 x_0_2_3 + u_0_2 - u_0_3 >= -190
 GETOUT_0_2_4#61:                - 200 x_0_2_4 + u_0_2 - u_0_4 >= -190
 GETOUT_0_2_5#62:                - 200 x_0_2_5 + u_0_2 - u_0_5 >= -190
 GETOUT_0_2_6#63:                - 200 x_0_2_6 + u_0_2 - u_0_6 >= -190
 GETOUT_0_2_7#64:                - 200 x_0_2_7 + u_0_2 - u_0_7 >= -190
 GETOUT_0_2_8#65:                - 200 x_0_2_8 + u_0_2 - u_0_8 >= -190
 GETOUT_0_2_9#66:                - 200 x_0_2_9 + u_0_2 - u_0_9 >= -190
 GETOUT_0_2_10#67:               - 200 x_0_2_10 + u_0_2 - u_0_10 >= -190
 GETOUT_0_3_0#68:                - 200 x_0_3_0 - u_0_0 + u_0_3 >= -180
 GETOUT_0_3_1#69:                - 200 x_0_3_1 - u_0_1 + u_0_3 >= -180
 GETOUT_0_3_2#70:                - 200 x_0_3_2 - u_0_2 + u_0_3 >= -180
 GETOUT_0_3_4#71:                - 200 x_0_3_4 + u_0_3 - u_0_4 >= -180
 GETOUT_0_3_5#72:                - 200 x_0_3_5 + u_0_3 - u_0_5 >= -180
 GETOUT_0_3_6#73:                - 200 x_0_3_6 + u_0_3 - u_0_6 >= -180
 GETOUT_0_3_7#74:                - 200 x_0_3_7 + u_0_3 - u_0_7 >= -180
 GETOUT_0_3_8#75:                - 200 x_0_3_8 + u_0_3 - u_0_8 >= -180
 GETOUT_0_3_9#76:                - 200 x_0_3_9 + u_0_3 - u_0_9 >= -180
 GETOUT_0_3_10#77:               - 200 x_0_3_10 + u_0_3 - u_0_10 >= -180
 GETOUT_0_4_0#78:                - 200 x_0_4_0 - u_0_0 + u_0_4 >= -170
 GETOUT_0_4_1#79:                - 200 x_0_4_1 - u_0_1 + u_0_4 >= -170
 GETOUT_0_4_2#80:                - 200 x_0_4_2 - u_0_2 + u_0_4 >= -170
 GETOUT_0_4_3#81:                - 200 x_0_4_3 - u_0_3 + u_0_4 >= -170
 GETOUT_0_4_5#82:                - 200 x_0_4_5 + u_0_4 - u_0_5 >= -170
 GETOUT_0_4_6#83:                - 200 x_0_4_6 + u_0_4 - u_0_6 >= -170
 GETOUT_0_4_7#84:                - 200 x_0_4_7 + u_0_4 - u_0_7 >= -170
 GETOUT_0_4_8#85:                - 200 x_0_4_8 + u_0_4 - u_0_8 >= -170
 GETOUT_0_4_9#86:                - 200 x_0_4_9 + u_0_4 - u_0_9 >= -170
 GETOUT_0_4_10#87:               - 200 x_0_4_10 + u_0_4 - u_0_10 >= -170
 GETOUT_0_5_0#88:                - 200 x_0_5_0 - u_0_0 + u_0_5 >= -170
 GETOUT_0_5_1#89:                - 200 x_0_5_1 - u_0_1 + u_0_5 >= -170
 GETOUT_0_5_2#90:                - 200 x_0_5_2 - u_0_2 + u_0_5 >= -170
 GETOUT_0_5_3#91:                - 200 x_0_5_3 - u_0_3 + u_0_5 >= -170
 GETOUT_0_5_4#92:                - 200 x_0_5_4 - u_0_4 + u_0_5 >= -170
 GETOUT_0_5_6#93:                - 200 x_0_5_6 + u_0_5 - u_0_6 >= -170
 GETOUT_0_5_7#94:                - 200 x_0_5_7 + u_0_5 - u_0_7 >= -170
 GETOUT_0_5_8#95:                - 200 x_0_5_8 + u_0_5 - u_0_8 >= -170
 GETOUT_0_5_9#96:                - 200 x_0_5_9 + u_0_5 - u_0_9 >= -170
 GETOUT_0_5_10#97:               - 200 x_0_5_10 + u_0_5 - u_0_10 >= -170
 GETOUT_0_6_0#98:                - 200 x_0_6_0 - u_0_0 + u_0_6 >= -190
 GETOUT_0_6_1#99:                - 200 x_0_6_1 - u_0_1 + u_0_6 >= -190
 GETOUT_0_6_2#100:               - 200 x_0_6_2 - u_0_2 + u_0_6 >= -190
 GETOUT_0_6_3#101:               - 200 x_0_6_3 - u_0_3 + u_0_6 >= -190
 GETOUT_0_6_4#102:               - 200 x_0_6_4 - u_0_4 + u_0_6 >= -190
 GETOUT_0_6_5#103:               - 200 x_0_6_5 - u_0_5 + u_0_6 >= -190
 GETOUT_0_6_7#104:               - 200 x_0_6_7 + u_0_6 - u_0_7 >= -190
 GETOUT_0_6_8#105:               - 200 x_0_6_8 + u_0_6 - u_0_8 >= -190
 GETOUT_0_6_9#106:               - 200 x_0_6_9 + u_0_6 - u_0_9 >= -190
 GETOUT_0_6_10#107:              - 200 x_0_6_10 + u_0_6 - u_0_10 >= -190
 GETOUT_0_7_0#108:               - 200 x_0_7_0 - u_0_0 + u_0_7 >= -190
 GETOUT_0_7_1#109:               - 200 x_0_7_1 - u_0_1 + u_0_7 >= -190
 GETOUT_0_7_2#110:               - 200 x_0_7_2 - u_0_2 + u_0_7 >= -190
 GETOUT_0_7_3#111:               - 200 x_0_7_3 - u_0_3 + u_0_7 >= -190
 GETOUT_0_7_4#112:               - 200 x_0_7_4 - u_0_4 + u_0_7 >= -190
 GETOUT_0_7_5#113:               - 200 x_0_7_5 - u_0_5 + u_0_7 >= -190
 GETOUT_0_7_6#114:               - 200 x_0_7_6 - u_0_6 + u_0_7 >= -190
 GETOUT_0_7_8#115:               - 200 x_0_7_8 + u_0_7 - u_0_8 >= -190
 GETOUT_0_7_9#116:               - 200 x_0_7_9 + u_0_7 - u_0_9 >= -190
 GETOUT_0_7_10#117:              - 200 x_0_7_10 + u_0_7 - u_0_10 >= -190
 GETOUT_0_8_0#118:               - 200 x_0_8_0 - u_0_0 + u_0_8 >= -180
 GETOUT_0_8_1#119:               - 200 x_0_8_1 - u_0_1 + u_0_8 >= -180
 GETOUT_0_8_2#120:               - 200 x_0_8_2 - u_0_2 + u_0_8 >= -180
 GETOUT_0_8_3#121:               - 200 x_0_8_3 - u_0_3 + u_0_8 >= -180
 GETOUT_0_8_4#122:               - 200 x_0_8_4 - u_0_4 + u_0_8 >= -180
 GETOUT_0_8_5#123:               - 200 x_0_8_5 - u_0_5 + u_0_8 >= -180
 GETOUT_0_8_6#124:               - 200 x_0_8_6 - u_0_6 + u_0_8 >= -180
 GETOUT_0_8_7#125:               - 200 x_0_8_7 - u_0_7 + u_0_8 >= -180
 GETOUT_0_8_9#126:               - 200 x_0_8_9 + u_0_8 - u_0_9 >= -180
 GETOUT_0_8_10#127:              - 200 x_0_8_10 + u_0_8 - u_0_10 >= -180
 GETOUT_0_9_0#128:               - 200 x_0_9_0 - u_0_0 + u_0_9 >= -190
 GETOUT_0_9_1#129:               - 200 x_0_9_1 - u_0_1 + u_0_9 >= -190
 GETOUT_0_9_2#130:               - 200 x_0_9_2 - u_0_2 + u_0_9 >= -190
 GETOUT_0_9_3#131:               - 200 x_0_9_3 - u_0_3 + u_0_9 >= -190
 GETOUT_0_9_4#132:               - 200 x_0_9_4 - u_0_4 + u_0_9 >= -190
 GETOUT_0_9_5#133:               - 200 x_0_9_5 - u_0_5 + u_0_9 >= -190
 GETOUT_0_9_6#134:               - 200 x_0_9_6 - u_0_6 + u_0_9 >= -190
 GETOUT_0_9_7#135:               - 200 x_0_9_7 - u_0_7 + u_0_9 >= -190
 GETOUT_0_9_8#136:               - 200 x_0_9_8 - u_0_8 + u_0_9 >= -190
 GETOUT_0_9_10#137:              - 200 x_0_9_10 + u_0_9 - u_0_10 >= -190
 GETOUT_0_10_0#138:              - 200 x_0_10_0 - u_0_0 + u_0_10 >= -190
 GETOUT_0_10_1#139:              - 200 x_0_10_1 - u_0_1 + u_0_10 >= -190
 GETOUT_0_10_2#140:              - 200 x_0_10_2 - u_0_2 + u_0_10 >= -190
 GETOUT_0_10_3#141:              - 200 x_0_10_3 - u_0_3 + u_0_10 >= -190
 GETOUT_0_10_4#142:              - 200 x_0_10_4 - u_0_4 + u_0_10 >= -190
 GETOUT_0_10_5#143:              - 200 x_0_10_5 - u_0_5 + u_0_10 >= -190
 GETOUT_0_10_6#144:              - 200 x_0_10_6 - u_0_6 + u_0_10 >= -190
 GETOUT_0_10_7#145:              - 200 x_0_10_7 - u_0_7 + u_0_10 >= -190
 GETOUT_0_10_8#146:              - 200 x_0_10_8 - u_0_8 + u_0_10 >= -190
 GETOUT_0_10_9#147:              - 200 x_0_10_9 - u_0_9 + u_0_10 >= -190
 fluxo_veiculo_0_da_entrega_9#148: z_0_9 + y_0_9  = 1
Bounds
      x_0_0_0 = 0
      x_0_0_1 = 0
      x_0_0_2 = 0
      x_0_0_3 = 0
      x_0_0_4 = 0
      x_0_0_5 = 0
      x_0_0_6 = 0
      x_0_0_7 = 0
      x_0_0_8 = 0
      x_0_0_9 = 1
      x_0_0_10 = 0
 0 <= x_0_1_0 <= 1
      x_0_1_1 = 0
 0 <= x_0_1_2 <= 1
 0 <= x_0_1_3 <= 1
 0 <= x_0_1_4 <= 1
 0 <= x_0_1_5 <= 1
 0 <= x_0_1_6 <= 1
 0 <= x_0_1_7 <= 1
 0 <= x_0_1_8 <= 1
      x_0_1_9 = 0
 0 <= x_0_1_10 <= 1
 0 <= x_0_2_0 <= 1
 0 <= x_0_2_1 <= 1
      x_0_2_2 = 0
 0 <= x_0_2_3 <= 1
 0 <= x_0_2_4 <= 1
 0 <= x_0_2_5 <= 1
 0 <= x_0_2_6 <= 1
 0 <= x_0_2_7 <= 1
 0 <= x_0_2_8 <= 1
      x_0_2_9 = 0
 0 <= x_0_2_10 <= 1
 0 <= x_0_3_0 <= 1
 0 <= x_0_3_1 <= 1
 0 <= x_0_3_2 <= 1
      x_0_3_3 = 0
 0 <= x_0_3_4 <= 1
 0 <= x_0_3_5 <= 1
 0 <= x_0_3_6 <= 1
 0 <= x_0_3_7 <= 1
 0 <= x_0_3_8 <= 1
      x_0_3_9 = 0
 0 <= x_0_3_10 <= 1
 0 <= x_0_4_0 <= 1
 0 <= x_0_4_1 <= 1
 0 <= x_0_4_2 <= 1
 0 <= x_0_4_3 <= 1
      x_0_4_4 = 0
 0 <= x_0_4_5 <= 1
 0 <= x_0_4_6 <= 1
 0 <= x_0_4_7 <= 1
 0 <= x_0_4_8 <= 1
      x_0_4_9 = 0
 0 <= x_0_4_10 <= 1
 0 <= x_0_5_0 <= 1
 0 <= x_0_5_1 <= 1
 0 <= x_0_5_2 <= 1
 0 <= x_0_5_3 <= 1
 0 <= x_0_5_4 <= 1
      x_0_5_5 = 0
 0 <= x_0_5_6 <= 1
 0 <= x_0_5_7 <= 1
 0 <= x_0_5_8 <= 1
      x_0_5_9 = 0
 0 <= x_0_5_10 <= 1
 0 <= x_0_6_0 <= 1
 0 <= x_0_6_1 <= 1
 0 <= x_0_6_2 <= 1
 0 <= x_0_6_3 <= 1
 0 <= x_0_6_4 <= 1
 0 <= x_0_6_5 <= 1
      x_0_6_6 = 0
 0 <= x_0_6_7 <= 1
 0 <= x_0_6_8 <= 1
      x_0_6_9 = 0
 0 <= x_0_6_10 <= 1
 0 <= x_0_7_0 <= 1
 0 <= x_0_7_1 <= 1
 0 <= x_0_7_2 <= 1
 0 <= x_0_7_3 <= 1
 0 <= x_0_7_4 <= 1
 0 <= x_0_7_5 <= 1
 0 <= x_0_7_6 <= 1
      x_0_7_7 = 0
 0 <= x_0_7_8 <= 1
      x_0_7_9 = 0
 0 <= x_0_7_10 <= 1
 0 <= x_0_8_0 <= 1
 0 <= x_0_8_1 <= 1
 0 <= x_0_8_2 <= 1
 0 <= x_0_8_3 <= 1
 0 <= x_0_8_4 <= 1
 0 <= x_0_8_5 <= 1
 0 <= x_0_8_6 <= 1
 0 <= x_0_8_7 <= 1
      x_0_8_8 = 0
      x_0_8_9 = 0
 0 <= x_0_8_10 <= 1
      x_0_9_0 = 0
 0 <= x_0_9_1 <= 1
 0 <= x_0_9_2 <= 1
 0 <= x_0_9_3 <= 1
 0 <= x_0_9_4 <= 1
 0 <= x_0_9_5 <= 1
 0 <= x_0_9_6 <= 1
 0 <= x_0_9_7 <= 1
 0 <= x_0_9_8 <= 1
      x_0_9_9 = 0
 0 <= x_0_9_10 <= 1
 0 <= x_0_10_0 <= 1
 0 <= x_0_10_1 <= 1
 0 <= x_0_10_2 <= 1
 0 <= x_0_10_3 <= 1
 0 <= x_0_10_4 <= 1
 0 <= x_0_10_5 <= 1
 0 <= x_0_10_6 <= 1
 0 <= x_0_10_7 <= 1
 0 <= x_0_10_8 <= 1
      x_0_10_9 = 0
      x_0_10_10 = 0
 0 <= z_0_1 <= 1
 0 <= y_0_1 <= 1
 0 <= z_0_2 <= 1
 0 <= y_0_2 <= 1
 0 <= z_0_3 <= 1
 0 <= y_0_3 <= 1
 0 <= z_0_4 <= 1
 0 <= y_0_4 <= 1
 0 <= z_0_5 <= 1
 0 <= y_0_5 <= 1
 0 <= z_0_6 <= 1
 0 <= y_0_6 <= 1
 0 <= z_0_7 <= 1
 0 <= y_0_7 <= 1
 0 <= z_0_8 <= 1
 0 <= y_0_8 <= 1
 0 <= z_0_9 <= 1
      y_0_9 = 0
 0 <= z_0_10 <= 1
 0 <= y_0_10 <= 1
      z_0_0 = 1
 0 <= u_0_1 <= 200
 0 <= u_0_0 <= 200
 0 <= u_0_2 <= 200
 0 <= u_0_3 <= 200
 0 <= u_0_4 <= 200
 0 <= u_0_5 <= 200
 0 <= u_0_6 <= 200
 0 <= u_0_7 <= 200
 0 <= u_0_8 <= 200
 0 <= u_0_9 <= 200
 0 <= u_0_10 <= 200
Binaries
 x_0_0_0  x_0_0_1  x_0_0_2  x_0_0_3  x_0_0_4  x_0_0_5  x_0_0_6  x_0_0_7 
 x_0_0_8  x_0_0_9  x_0_0_10  x_0_9_0  x_0_9_1  x_0_9_2  x_0_9_3  x_0_9_4 
 x_0_9_5  x_0_9_6  x_0_9_7  x_0_9_8  x_0_9_9  x_0_9_10  z_0_1  y_0_1  z_0_2 
 y_0_2  z_0_3  y_0_3  z_0_4  y_0_4  z_0_5  y_0_5  z_0_6  y_0_6  z_0_7  y_0_7 
 z_0_8  y_0_8  z_0_9  y_0_9  z_0_10  y_0_10  z_0_0 
End
